============================[ Problem Statistics ]=============================|                                                                             ||  Number of variables:          4242                                         ||  Number of clauses:           10406                                         ||  Parse time:                   0.79 s                                       ||                                                                             |============================[ Search Statistics ]==============================| Conflicts |          ORIGINAL         |          LEARNT          | Progress ||           |    Vars  Clauses Literals |    Limit  Clauses Lit/Cl |          |===============================================================================|       100 |    1591     6611  1265502 |     2424      100     53 | 62.501 % ||       250 |    1591     6611  1265502 |     2666      250     75 | 62.495 % |===============================================================================restarts              : 4conflicts             : 428            (356 /sec)decisions             : 790            (0.00 % random) (657 /sec)propagations          : 13702          (11390 /sec)conflict literals     : 35952          (94.50 % deleted)CPU time              : 1.203 sSATISFIABLE